(set-logic QF_UF)
(declare-fun circuit () Bool)
(declare-fun grn () Bool)
(declare-fun grn_MR () Bool)
(declare-fun grn_SR () Bool)
(declare-fun org () Bool)
(declare-fun org_MR () Bool)
(declare-fun org_SR () Bool)
(declare-fun prt () Bool)
(declare-fun rd1 () Bool)
(declare-fun rd2 () Bool)
(declare-fun red_MR () Bool)
(declare-fun red_SR () Bool)
(assert (not (= (and (not prt) rd1) (and (not prt) red_MR))))
(assert (= (not prt) (not prt)))
(assert (= rd1 red_MR))
(check-sat)
(exit)
